
  32    4
  10   10   10   10

   0   0   0   0   0   7 2 3 4 5 10 11 14 
  10   1   1   0   1   4 16 12 9 6 
  10   0   1   1   3   6 23 19 18 16 15 9 
   4   3   0   7   4   5 23 15 13 12 8 
  10   0   4   4   7   3 17 15 7 
   4   3   4   0   3   7 31 30 23 21 19 17 13 
   5   5   3   0   7   7 31 30 29 23 21 19 18 
   6   6   2   0   3   6 30 29 28 21 20 19 
   8   6   6   4   0   5 31 30 21 20 17 
   8   5   4   0   4   4 31 30 23 18 
   2   4   7   3   0   4 23 22 21 17 
   2   0   4   2   5   4 31 30 24 20 
   2   5   4   3   0   3 24 20 18 
   6   0   6   3   2   3 24 23 18 
   8   4   2   0   6   3 28 24 20 
   4   4   0   8   7   3 29 21 20 
   5   1   0   6   4   5 29 28 27 26 25 
   4   3   0   3   5   3 28 25 22 
   1   3   0   2   3   3 27 26 24 
   6   5   7   3   0   2 25 22 
   6   3   5   0   1   3 27 26 25 
   2   0   3   6   5   2 27 26 
   4   3   0   4   2   2 26 25 
   9   9   0   7   3   1 25 
   8   5   5   6   0   1 32
   2   4   4   2   0   1 32
   5   3   0   4   2   1 32
   5   3   0   4   5   1 32
   8   0   2   5   3   1 32
   9   0   6   3   6   1 32
   8   4   0   2   5   1 32
   0   0   0   0   0   0 
